MARKOV
227
 2 2 2 2 2 2 2 2 2 2 2 2 2 2 2 2 2 2 2 2 2 2 2 2 2 2 2 2 2 2 2 2 2 2 2 2 2 2 2 2 2 2 2 2 2 2 2 2 2 2 2 2 2 2 2 2 2 2 2 2 2 2 2 2 2 2 2 2 2 2 2 2 2 2 2 2 2 2 2 2 2 2 2 2 2 2 2 2 2 2 2 2 2 2 2 2 2 2 2 2 2 2 2 2 2 2 2 2 2 2 2 2 2 2 2 2 2 2 2 2 2 2 2 2 2 2 2 2 2 2 2 2 2 2 2 2 2 2 2 2 2 2 2 2 2 2 2 2 2 2 2 2 2 2 2 2 2 2 2 2 2 2 2 2 2 2 2 2 2 2 2 2 2 2 2 2 2 2 2 2 2 2 2 2 2 2 2 2 2 2 2 2 2 2 2 2 2 2 2 2 2 2 2 2 2 2 2 2 2 2 2 2 2 2 2 2 2 2 2 2 2 2 2 2 2 2 2
846
1	0 
1	1 
1	2 
1	3 
1	4 
1	5 
1	6 
1	7 
1	8 
1	9 
1	10 
1	11 
1	12 
1	13 
1	14 
1	15 
1	16 
1	17 
1	18 
1	19 
1	20 
1	21 
1	22 
1	23 
1	24 
1	25 
1	26 
1	27 
1	28 
1	29 
1	30 
1	31 
1	32 
1	33 
1	34 
1	35 
1	36 
1	37 
1	38 
1	39 
1	40 
1	41 
1	42 
1	43 
1	44 
1	45 
1	46 
1	47 
1	48 
1	49 
1	50 
1	51 
1	52 
1	53 
1	54 
1	55 
1	56 
1	57 
1	58 
1	59 
1	60 
1	61 
1	62 
1	63 
1	64 
1	65 
1	66 
1	67 
1	68 
1	69 
1	70 
1	71 
1	72 
1	73 
1	74 
1	75 
1	76 
1	77 
1	78 
1	79 
1	80 
1	81 
1	82 
1	83 
1	84 
1	85 
1	86 
1	87 
1	88 
1	89 
1	90 
1	91 
1	92 
1	93 
1	94 
1	95 
1	96 
1	97 
1	98 
1	99 
1	100 
1	101 
1	102 
1	103 
1	104 
1	105 
1	106 
1	107 
1	108 
1	109 
1	110 
1	111 
1	112 
1	113 
1	114 
1	115 
1	116 
1	117 
1	118 
1	119 
1	120 
1	121 
1	122 
1	123 
1	124 
1	125 
1	126 
1	127 
1	128 
1	129 
1	130 
1	131 
1	132 
1	133 
1	134 
1	135 
1	136 
1	137 
1	138 
1	139 
1	140 
1	141 
1	142 
1	143 
1	144 
1	145 
1	146 
1	147 
1	148 
1	149 
1	150 
1	151 
1	152 
1	153 
1	154 
1	155 
1	156 
1	157 
1	158 
1	159 
1	160 
1	161 
1	162 
1	163 
1	164 
1	165 
1	166 
1	167 
1	168 
1	169 
1	170 
1	171 
1	172 
1	173 
1	174 
1	175 
1	176 
1	177 
1	178 
1	179 
1	180 
1	181 
1	182 
1	183 
1	184 
1	185 
1	186 
1	187 
1	188 
1	189 
1	190 
1	191 
1	192 
1	193 
1	194 
1	195 
1	196 
1	197 
1	198 
1	199 
1	200 
1	201 
1	202 
1	203 
1	204 
1	205 
1	206 
1	207 
1	208 
1	209 
1	210 
1	211 
1	212 
1	213 
1	214 
1	215 
1	216 
1	217 
1	218 
1	219 
1	220 
1	221 
1	222 
1	223 
1	224 
1	225 
1	226 
2	1 2 
2	1 157 
2	1 190 
2	1 216 
2	1 217 
2	2 130 
2	2 132 
2	2 153 
2	2 157 
2	2 216 
2	3 5 
2	3 185 
2	4 5 
2	4 80 
2	4 81 
2	5 80 
2	5 185 
2	5 187 
2	6 8 
2	6 10 
2	6 94 
2	6 165 
2	6 200 
2	7 8 
2	7 9 
2	7 10 
2	8 10 
2	9 10 
2	9 164 
2	9 166 
2	10 164 
2	10 165 
2	11 12 
2	11 14 
2	11 19 
2	11 20 
2	11 46 
2	11 183 
2	12 13 
2	12 14 
2	12 16 
2	12 19 
2	12 102 
2	12 103 
2	13 16 
2	13 17 
2	13 102 
2	13 105 
2	14 46 
2	14 103 
2	14 152 
2	15 17 
2	15 18 
2	15 83 
2	15 84 
2	15 173 
2	15 175 
2	16 17 
2	16 18 
2	16 19 
2	17 18 
2	17 83 
2	17 105 
2	17 215 
2	18 19 
2	18 23 
2	18 24 
2	18 173 
2	19 20 
2	19 23 
2	20 22 
2	20 23 
2	20 25 
2	20 183 
2	21 22 
2	21 23 
2	21 24 
2	21 127 
2	22 23 
2	22 25 
2	23 24 
2	24 127 
2	24 128 
2	24 173 
2	25 181 
2	25 183 
2	26 27 
2	26 29 
2	26 30 
2	26 98 
2	27 28 
2	27 29 
2	27 41 
2	28 29 
2	28 31 
2	28 40 
2	28 41 
2	29 30 
2	29 31 
2	29 33 
2	30 33 
2	30 34 
2	30 97 
2	30 98 
2	31 32 
2	31 33 
2	31 35 
2	31 40 
2	32 35 
2	32 38 
2	32 39 
2	32 40 
2	33 34 
2	33 35 
2	33 57 
2	33 139 
2	33 193 
2	34 97 
2	34 139 
2	34 142 
2	35 39 
2	35 193 
2	36 37 
2	36 38 
2	36 39 
2	36 194 
2	36 204 
2	37 38 
2	37 43 
2	37 44 
2	37 64 
2	37 204 
2	37 205 
2	38 39 
2	38 40 
2	38 44 
2	39 193 
2	39 194 
2	39 195 
2	40 41 
2	40 42 
2	40 44 
2	41 42 
2	42 43 
2	42 44 
2	42 59 
2	43 44 
2	43 59 
2	43 62 
2	43 64 
2	45 46 
2	45 47 
2	45 150 
2	45 182 
2	45 183 
2	45 184 
2	46 150 
2	46 152 
2	46 183 
2	47 150 
2	47 151 
2	47 182 
2	48 49 
2	48 53 
2	48 101 
2	48 107 
2	48 108 
2	48 116 
2	49 50 
2	49 52 
2	49 53 
2	49 107 
2	49 154 
2	50 51 
2	50 52 
2	50 154 
2	50 156 
2	50 188 
2	51 52 
2	51 188 
2	51 191 
2	51 198 
2	51 218 
2	52 53 
2	52 198 
2	53 100 
2	53 101 
2	53 198 
2	53 199 
2	54 55 
2	54 140 
2	54 142 
2	54 156 
2	54 213 
2	55 56 
2	55 57 
2	55 139 
2	55 142 
2	55 155 
2	55 156 
2	56 57 
2	56 58 
2	56 155 
2	56 157 
2	57 58 
2	57 139 
2	57 193 
2	58 157 
2	58 193 
2	58 195 
2	59 62 
2	59 68 
2	60 61 
2	60 67 
2	60 113 
2	60 206 
2	61 63 
2	61 64 
2	61 66 
2	61 67 
2	61 68 
2	61 206 
2	62 64 
2	62 68 
2	63 64 
2	63 115 
2	63 205 
2	63 206 
2	64 68 
2	64 205 
2	65 66 
2	65 67 
2	66 67 
2	66 68 
2	69 70 
2	69 71 
2	69 72 
2	69 100 
2	69 199 
2	69 221 
2	70 71 
2	70 100 
2	70 101 
2	70 158 
2	70 160 
2	71 72 
2	71 160 
2	71 177 
2	71 178 
2	72 178 
2	72 179 
2	72 221 
2	72 222 
2	73 74 
2	73 75 
2	73 76 
2	73 144 
2	73 145 
2	73 147 
2	74 75 
2	74 144 
2	74 146 
2	75 76 
2	75 77 
2	76 77 
2	76 104 
2	76 147 
2	76 149 
2	77 149 
2	77 151 
2	78 81 
2	78 82 
2	78 122 
2	78 124 
2	79 80 
2	79 81 
2	79 82 
2	79 89 
2	79 177 
2	79 178 
2	79 187 
2	80 81 
2	80 187 
2	81 82 
2	82 122 
2	82 178 
2	82 179 
2	82 180 
2	83 84 
2	83 87 
2	83 197 
2	83 215 
2	83 217 
2	84 85 
2	84 87 
2	84 172 
2	84 175 
2	84 176 
2	85 86 
2	85 87 
2	85 172 
2	85 219 
2	86 87 
2	86 196 
2	86 218 
2	86 219 
2	87 196 
2	87 197 
2	88 89 
2	88 136 
2	88 162 
2	88 186 
2	88 187 
2	89 160 
2	89 177 
2	89 187 
2	90 91 
2	90 92 
2	90 202 
2	90 203 
2	91 93 
2	91 96 
2	91 203 
2	92 94 
2	92 200 
2	92 202 
2	93 96 
2	93 98 
2	94 200 
2	95 96 
2	95 97 
2	95 99 
2	95 140 
2	95 141 
2	95 142 
2	96 97 
2	96 98 
2	96 99 
2	96 203 
2	97 98 
2	97 142 
2	99 141 
2	99 201 
2	99 203 
2	100 101 
2	100 199 
2	101 116 
2	101 120 
2	101 158 
2	101 159 
2	102 103 
2	102 105 
2	102 106 
2	102 134 
2	103 104 
2	103 106 
2	103 149 
2	103 152 
2	104 106 
2	104 147 
2	104 149 
2	105 132 
2	105 215 
2	105 216 
2	106 134 
2	106 143 
2	106 147 
2	107 108 
2	107 154 
2	107 212 
2	107 214 
2	108 109 
2	108 116 
2	108 214 
2	108 225 
2	109 116 
2	109 117 
2	109 167 
2	109 171 
2	109 225 
2	110 111 
2	110 112 
2	110 113 
2	110 114 
2	110 115 
2	110 206 
2	111 112 
2	111 114 
2	111 144 
2	111 146 
2	112 113 
2	113 206 
2	114 115 
2	114 144 
2	114 148 
2	114 208 
2	114 210 
2	115 205 
2	115 206 
2	115 208 
2	116 117 
2	116 120 
2	117 118 
2	117 120 
2	117 121 
2	117 171 
2	118 119 
2	118 120 
2	118 121 
2	118 159 
2	118 161 
2	119 121 
2	119 161 
2	120 159 
2	121 169 
2	121 171 
2	122 123 
2	122 124 
2	122 174 
2	122 180 
2	123 124 
2	123 125 
2	123 126 
2	123 174 
2	125 126 
2	125 129 
2	126 128 
2	126 129 
2	126 174 
2	126 176 
2	127 128 
2	127 129 
2	128 129 
2	128 173 
2	128 175 
2	128 176 
2	130 131 
2	130 132 
2	130 133 
2	130 153 
2	131 133 
2	131 135 
2	131 153 
2	131 207 
2	131 209 
2	132 133 
2	132 134 
2	132 216 
2	133 134 
2	133 135 
2	134 135 
2	134 143 
2	135 143 
2	135 148 
2	135 209 
2	136 137 
2	136 138 
2	136 162 
2	136 186 
2	137 138 
2	137 161 
2	137 163 
2	138 158 
2	138 160 
2	138 162 
2	138 163 
2	139 142 
2	140 141 
2	140 142 
2	140 211 
2	140 213 
2	141 201 
2	141 211 
2	141 214 
2	141 223 
2	143 145 
2	143 147 
2	143 148 
2	144 145 
2	144 146 
2	144 148 
2	145 147 
2	145 148 
2	148 209 
2	148 210 
2	149 150 
2	149 151 
2	149 152 
2	150 151 
2	150 152 
2	153 157 
2	153 194 
2	153 195 
2	153 207 
2	154 156 
2	154 212 
2	154 213 
2	155 156 
2	155 157 
2	155 189 
2	155 190 
2	156 188 
2	156 189 
2	156 213 
2	157 190 
2	157 195 
2	158 159 
2	158 160 
2	158 163 
2	159 161 
2	159 163 
2	160 162 
2	160 177 
2	161 163 
2	164 165 
2	164 166 
2	164 168 
2	164 170 
2	165 170 
2	165 200 
2	165 224 
2	165 226 
2	166 168 
2	167 170 
2	167 171 
2	167 224 
2	167 225 
2	168 169 
2	168 170 
2	168 171 
2	169 171 
2	170 171 
2	170 224 
2	172 174 
2	172 176 
2	172 219 
2	172 220 
2	173 175 
2	174 176 
2	174 180 
2	174 220 
2	175 176 
2	177 178 
2	178 179 
2	179 180 
2	179 222 
2	180 220 
2	180 222 
2	181 183 
2	181 184 
2	182 184 
2	183 184 
2	185 186 
2	185 187 
2	186 187 
2	188 189 
2	188 191 
2	188 192 
2	189 190 
2	189 192 
2	190 192 
2	190 197 
2	190 217 
2	191 192 
2	191 196 
2	191 218 
2	192 196 
2	192 197 
2	193 195 
2	194 195 
2	194 204 
2	194 207 
2	196 197 
2	196 218 
2	197 217 
2	198 199 
2	198 218 
2	199 218 
2	199 221 
2	200 201 
2	200 202 
2	200 226 
2	201 202 
2	201 203 
2	201 223 
2	201 226 
2	202 203 
2	204 205 
2	204 207 
2	204 208 
2	204 209 
2	205 208 
2	207 209 
2	208 209 
2	208 210 
2	209 210 
2	211 212 
2	211 213 
2	211 214 
2	212 213 
2	212 214 
2	214 223 
2	214 225 
2	215 216 
2	215 217 
2	216 217 
2	218 219 
2	218 221 
2	219 220 
2	219 221 
2	219 222 
2	220 222 
2	221 222 
2	223 224 
2	223 225 
2	223 226 
2	224 225 
2	224 226 
0	

2
 0.252912 1
2
 0.196229 1
2
 0.209654 1
2
 1 0.0882894
2
 1 0.169969
2
 1 0.125412
2
 1 0.0860915
2
 1 0.0518816
2
 1 0.182278
2
 1 0.0739717
2
 1 0.113122
2
 0.647565 1
2
 0.499551 1
2
 0.412175 1
2
 0.406619 1
2
 1 0.99773
2
 0.505931 1
2
 1 0.847814
2
 0.67003 1
2
 0.643649 1
2
 1 0.117834
2
 1 0.127033
2
 1 0.464011
2
 1 0.235317
2
 1 0.456105
2
 1 0.0954615
2
 1 0.104112
2
 1 0.0748161
2
 1 0.105253
2
 1 0.248647
2
 1 0.284637
2
 1 0.268188
2
 1 0.212392
2
 1 0.316881
2
 1 0.353308
2
 1 0.189557
2
 1 0.26656
2
 1 0.27701
2
 1 0.139576
2
 1 0.198852
2
 1 0.15193
2
 1 0.0993068
2
 1 0.13115
2
 1 0.167738
2
 1 0.096766
2
 1 0.358217
2
 1 0.862903
2
 1 0.297032
2
 0.0858477 1
2
 0.0315525 1
2
 0.123933 1
2
 0.185484 1
2
 0.294742 1
2
 0.848783 1
2
 0.788775 1
2
 1 0.344618
2
 1 0.406288
2
 0.386021 1
2
 1 0.647213
2
 1 0.10169
2
 1 0.0586999
2
 1 0.103407
2
 1 0.129831
2
 1 0.0743538
2
 1 0.107072
2
 1 0.0954807
2
 1 0.138032
2
 1 0.0414963
2
 1 0.0810075
2
 0.115897 1
2
 0.0642142 1
2
 0.219107 1
2
 0.178614 1
2
 0.660561 1
2
 0.866758 1
2
 0.909439 1
2
 0.867392 1
2
 1 0.445041
2
 1 0.871
2
 0.422655 1
2
 0.382018 1
2
 1 0.894374
2
 0.304684 1
2
 0.432108 1
2
 0.471702 1
2
 0.189556 1
2
 0.788482 1
2
 0.481127 1
2
 0.555129 1
2
 0.518772 1
2
 1 0.0545152
2
 1 0.183918
2
 1 0.0719411
2
 1 0.102409
2
 1 0.188478
2
 1 0.171349
2
 1 0.106399
2
 1 0.18885
2
 1 0.123587
2
 1 0.218004
2
 0.0791391 1
2
 0.454398 1
2
 0.27075 1
2
 0.585927 1
2
 0.247448 1
2
 0.108972 1
2
 0.107532 1
2
 0.106497 1
2
 0.260852 1
2
 0.37105 1
2
 1 0.0960032
2
 1 0.0787841
2
 1 0.0850294
2
 1 0.061647
2
 1 0.119731
2
 1 0.277394
2
 0.995849 1
2
 0.211613 1
2
 0.26689 1
2
 0.693027 1
2
 0.361064 1
2
 1 0.63023
2
 1 0.787446
2
 1 0.15037
2
 1 0.110792
2
 1 0.0915524
2
 1 0.134492
2
 1 0.162894
2
 1 0.745096
2
 1 0.156899
2
 0.102037 1
2
 0.181134 1
2
 0.66168 1
2
 0.244198 1
2
 0.822709 1
2
 0.192177 1
2
 0.442162 1
2
 0.772872 1
2
 1 0.759986
2
 0.136855 1
2
 0.0453844 1
2
 0.481829 1
2
 0.0758477 1
2
 0.362745 1
2
 0.393784 1
2
 1 0.93507
2
 1 0.888521
2
 0.594846 1
2
 0.122576 1
2
 1 0.84995
2
 1 0.721827
2
 1 0.480039
2
 0.711977 1
2
 0.166403 1
2
 0.0275826 1
2
 0.261313 1
2
 0.353348 1
2
 0.145537 1
2
 0.372475 1
2
 0.657111 1
2
 0.261225 1
2
 1 0.719312
2
 1 0.823516
2
 0.732021 1
2
 1 0.0812295
2
 1 0.038183
2
 1 0.0896158
2
 1 0.112362
2
 1 0.0523589
2
 1 0.234055
2
 1 0.0641433
2
 1 0.414936
2
 0.368633 1
2
 0.433693 1
2
 0.567952 1
2
 0.332084 1
2
 0.324518 1
2
 0.274582 1
2
 0.243523 1
2
 0.638756 1
2
 0.385329 1
2
 1 0.166575
2
 1 0.0313938
2
 1 0.233686
2
 1 0.0703725
2
 0.539744 1
2
 1 0.85907
2
 0.448727 1
2
 0.194784 1
2
 0.704625 1
2
 0.33782 1
2
 0.0875792 1
2
 0.294743 1
2
 0.434729 1
2
 1 0.739019
2
 1 0.796553
2
 0.221233 1
2
 0.216977 1
2
 0.219416 1
2
 0.105177 1
2
 1 0.079586
2
 1 0.139369
2
 1 0.0557329
2
 1 0.119299
2
 1 0.300245
2
 1 0.247221
2
 1 0.0776466
2
 0.941329 1
2
 1 0.182687
2
 1 0.334912
2
 1 0.32647
2
 0.580479 1
2
 1 0.447347
2
 0.578519 1
2
 1 0.670058
2
 0.289613 1
2
 0.786204 1
2
 0.140204 1
2
 0.389026 1
2
 0.258975 1
2
 0.67277 1
2
 0.140359 1
2
 0.428472 1
2
 1 0.294762
2
 1 0.030855
2
 1 0.077056
2
 1 0.0665416
4
 0.986603 0.285798 0.285798 1
4
 0.985008 0.286623 0.286623 1
4
 0.989338 0.29113 0.29113 1
4
 0.99189 0.28959 0.28959 1
4
 0.993085 0.292058 0.292058 1
4
 0.983447 0.281214 0.281214 1
4
 0.988194 0.284117 0.284117 1
4
 0.980384 0.280193 0.280193 1
4
 0.983119 0.284198 0.284198 1
4
 0.989988 0.28714 0.28714 1
4
 1 0.360275 0.360275 0.941415
4
 1 0.360464 0.360464 0.944798
4
 1 0.355196 0.355196 0.942485
4
 1 0.351155 0.351155 0.94608
4
 1 0.349488 0.349488 0.944968
4
 1 0.353539 0.353539 0.945778
4
 1 0.357795 0.357795 0.94557
4
 1 0.354171 0.354171 0.948048
4
 0.950268 0.290955 0.290955 1
4
 0.954647 0.294299 0.294299 1
4
 0.947984 0.286058 0.286058 1
4
 0.9563 0.293725 0.293725 1
4
 0.952138 0.288809 0.288809 1
4
 0.950584 0.294797 0.294797 1
4
 0.955929 0.300691 0.300691 1
4
 0.954964 0.298185 0.298185 1
4
 0.953893 0.295425 0.295425 1
4
 0.959257 0.301332 0.301332 1
4
 0.962849 0.30398 0.30398 1
4
 0.964171 0.306999 0.306999 1
4
 0.961877 0.301447 0.301447 1
4
 0.959948 0.298238 0.298238 1
4
 1 0.289676 0.289676 0.98574
4
 1 0.288409 0.288409 0.985532
4
 1 0.292215 0.292215 0.980564
4
 1 0.292366 0.292366 0.97751
4
 1 0.287455 0.287455 0.982579
4
 1 0.289727 0.289727 0.978528
4
 1 0.290498 0.290498 0.99078
4
 1 0.288368 0.288368 0.989566
4
 1 0.292773 0.292773 0.986505
4
 1 0.292174 0.292174 0.984579
4
 1 0.287344 0.287344 0.995904
4
 1 0.286106 0.286106 0.993662
4
 1 0.293645 0.293645 0.987507
4
 1 0.293832 0.293832 0.990235
4
 1 0.2882 0.2882 0.996915
4
 1 0.290566 0.290566 0.995797
4
 1 0.286156 0.286156 0.986393
4
 1 0.284854 0.284854 0.993453
4
 1 0.284768 0.284768 0.990469
4
 1 0.299285 0.299285 0.985531
4
 1 0.301325 0.301325 0.97982
4
 1 0.301497 0.301497 0.986739
4
 1 0.304875 0.304875 0.982231
4
 1 0.303776 0.303776 0.978532
4
 1 0.305963 0.305963 0.978165
4
 1 0.296132 0.296132 0.985963
4
 1 0.29815 0.29815 0.980249
4
 1 0.295338 0.295338 0.981326
4
 1 0.29834 0.29834 0.982957
4
 1 0.29851 0.29851 0.989899
4
 1 0.293027 0.293027 0.99424
4
 1 0.29563 0.29563 0.992629
4
 1 0.297541 0.297541 0.978335
4
 1 0.300852 0.300852 0.973676
4
 1 0.303615 0.303615 0.97285
4
 1 0.302817 0.302817 0.975976
4
 1 0.294886 0.294886 0.976358
4
 1 0.298015 0.298015 0.974746
4
 1 0.298466 0.298466 0.968815
4
 1 0.298168 0.298168 0.971709
4
 1 0.296036 0.296036 0.969903
4
 1 0.292375 0.292375 0.974331
4
 1 0.304888 0.304888 0.96285
4
 1 0.304583 0.304583 0.965727
4
 1 0.307381 0.307381 0.964908
4
 1 0.310675 0.310675 0.960367
4
 1 0.301633 0.301633 0.967215
4
 1 0.299476 0.299476 0.965417
4
 1 0.304099 0.304099 0.969282
4
 1 0.310181 0.310181 0.963903
4
 1 0.310401 0.310401 0.966752
4
 1 0.306085 0.306085 0.971571
4
 1 0.294816 0.294816 0.967105
4
 1 0.293364 0.293364 0.970914
4
 0.934495 0.255173 0.255173 1
4
 0.939404 0.259099 0.259099 1
4
 0.940664 0.261216 0.261216 1
4
 0.938231 0.261026 0.261026 1
4
 0.935898 0.253437 0.253437 1
4
 0.937725 0.256044 0.256044 1
4
 0.931854 0.249629 0.249629 1
4
 0.940814 0.257335 0.257335 1
4
 0.943072 0.257492 0.257492 1
4
 0.939202 0.25333 0.25333 1
4
 0.934923 0.250887 0.250887 1
4
 0.943915 0.262108 0.262108 1
4
 0.944914 0.260141 0.260141 1
4
 0.947939 0.263585 0.263585 1
4
 0.949211 0.26574 0.26574 1
4
 0.949223 0.267348 0.267348 1
4
 0.947895 0.26781 0.26781 1
4
 0.942736 0.264058 0.264058 1
4
 0.948722 0.260335 0.260335 1
4
 0.950214 0.263746 0.263746 1
4
 0.952602 0.264152 0.264152 1
4
 0.943294 0.256092 0.256092 1
4
 0.954151 0.264188 0.264188 1
4
 0.949489 0.258231 0.258231 1
4
 0.954216 0.262386 0.262386 1
4
 0.944829 0.256127 0.256127 1
4
 0.95327 0.268856 0.268856 1
4
 0.955652 0.26765 0.26765 1
4
 0.959059 0.271604 0.271604 1
4
 0.957794 0.271852 0.271852 1
4
 0.958699 0.269561 0.269561 1
4
 0.951949 0.27095 0.27095 1
4
 0.957807 0.273497 0.273497 1
4
 0.95742 0.274609 0.274609 1
4
 0.958118 0.266233 0.266233 1
4
 0.961108 0.269977 0.269977 1
4
 0.950847 0.254812 0.254812 1
4
 0.95255 0.257852 0.257852 1
4
 0.957292 0.262 0.262 1
4
 0.961032 0.263874 0.263874 1
4
 0.956312 0.258254 0.258254 1
4
 0.947017 0.253091 0.253091 1
4
 0.941434 0.24787 0.24787 1
4
 0.94275 0.250012 0.250012 1
4
 0.940741 0.245634 0.245634 1
4
 0.950758 0.253485 0.253485 1
4
 0.946703 0.249792 0.249792 1
4
 0.953436 0.26023 0.26023 1
4
 0.944057 0.254023 0.254023 1
4
 0.944438 0.252994 0.252994 1
4
 0.961173 0.268135 0.268135 1
4
 0.961926 0.266307 0.266307 1
4
 0.963936 0.268954 0.268954 1
4
 0.935143 0.249523 0.249523 1
4
 0.934845 0.247762 0.247762 1
4
 0.939802 0.250932 0.250932 1
4
 0.930586 0.245374 0.245374 1
4
 0.933918 0.244645 0.244645 1
4
 0.935223 0.246759 0.246759 1
4
 0.928245 0.24102 0.24102 1
4
 0.93887 0.247775 0.247775 1
4
 0.931865 0.242012 0.242012 1
4
 0.933741 0.242102 0.242102 1
4
 0.93687 0.243436 0.243436 1
4
 1 0.283845 0.283845 0.983285
4
 1 0.280646 0.280646 0.984016
4
 1 0.280564 0.280564 0.987663
4
 1 0.282927 0.282927 0.978338
4
 1 0.286089 0.286089 0.979232
4
 1 0.284921 0.284921 0.977593
4
 1 0.281913 0.281913 0.987816
4
 1 0.283826 0.283826 0.987501
4
 1 0.287464 0.287464 0.979383
4
 1 0.278735 0.278735 0.98855
4
 1 0.276682 0.276682 0.990561
4
 1 0.281082 0.281082 0.979217
4
 0.993655 0.313666 0.313666 1
4
 0.998875 0.318492 0.318492 1
4
 1 0.322293 0.322293 0.998839
4
 0.990417 0.311694 0.311694 1
4
 0.990486 0.313727 0.313727 1
4
 0.995777 0.319257 0.319257 1
4
 0.991809 0.30796 0.30796 1
4
 0.99501 0.31164 0.31164 1
4
 0.997313 0.315323 0.315323 1
4
 0.988869 0.308593 0.308593 1
4
 0.988331 0.305846 0.305846 1
4
 0.996359 0.308693 0.308693 1
4
 0.994717 0.309045 0.309045 1
4
 0.988041 0.3033 0.3033 1
4
 0.986821 0.300214 0.300214 1
4
 0.99101 0.303205 0.303205 1
4
 0.999574 0.312381 0.312381 1
4
 0.995849 0.306478 0.306478 1
4
 1 0.31036 0.31036 0.998125
4
 1 0.314142 0.314142 0.996061
4
 1 0.313872 0.313872 0.992742
4
 1 0.316359 0.316359 0.999763
4
 1 0.31502 0.31502 0.997705
4
 1 0.321931 0.321931 0.993726
4
 1 0.322806 0.322806 0.995175
4
 1 0.318007 0.318007 0.995401
4
 1 0.32014 0.32014 0.99267
4
 0.973872 0.287216 0.287216 1
4
 0.970041 0.286769 0.286769 1
4
 0.968018 0.283947 0.283947 1
4
 0.978318 0.29214 0.29214 1
4
 0.975787 0.291928 0.291928 1
4
 0.973634 0.284099 0.284099 1
4
 0.969059 0.28061 0.28061 1
4
 0.967781 0.280866 0.280866 1
4
 0.96739 0.282008 0.282008 1
4
 0.977719 0.287663 0.287663 1
4
 0.977684 0.290144 0.290144 1
4
 0.969451 0.279474 0.279474 1
4
 0.972129 0.280067 0.280067 1
4
 0.978114 0.286499 0.286499 1
4
 0.977771 0.283982 0.283982 1
4
 0.967561 0.276627 0.276627 1
4
 0.963623 0.276293 0.276293 1
4
 0.964534 0.273965 0.273965 1
4
 0.975865 0.28109 0.28109 1
4
 0.967198 0.274547 0.274547 1
4
 0.969979 0.275386 0.275386 1
4
 0.92807 0.238515 0.238515 1
4
 0.925316 0.235837 0.235837 1
4
 0.935022 0.23562 0.23562 1
4
 0.931597 0.231974 0.231974 1
4
 0.939417 0.236401 0.236401 1
4
 0.939091 0.237472 0.237472 1
4
 0.938128 0.239684 0.239684 1
4
 0.93531 0.239036 0.239036 1
4
 0.929408 0.233643 0.233643 1
4
 0.931018 0.233187 0.233187 1
4
 0.929421 0.235057 0.235057 1
4
 0.938507 0.238714 0.238714 1
4
 0.933054 0.239919 0.239919 1
4
 0.927179 0.235925 0.235925 1
4
 0.939 0.241894 0.241894 1
4
 0.946352 0.245367 0.245367 1
4
 0.944951 0.245989 0.245989 1
4
 0.94221 0.241568 0.241568 1
4
 0.930285 0.237225 0.237225 1
4
 0.942113 0.245325 0.245325 1
4
 0.922267 0.227785 0.227785 1
4
 0.923864 0.22734 0.22734 1
4
 0.926003 0.230027 0.230027 1
4
 0.924414 0.231872 0.231872 1
4
 1 0.327963 0.327963 0.981771
4
 1 0.33026 0.33026 0.977645
4
 1 0.328155 0.328155 0.976715
4
 1 0.325475 0.325475 0.985399
4
 1 0.323665 0.323665 0.984351
4
 1 0.324049 0.324049 0.980795
4
 1 0.331811 0.331811 0.978607
4
 1 0.327004 0.327004 0.986368
4
 1 0.327893 0.327893 0.987806
4
 1 0.332307 0.332307 0.982392
4
 1 0.333927 0.333927 0.978349
4
 1 0.332006 0.332006 0.973567
4
 1 0.336266 0.336266 0.974238
4
 1 0.336589 0.336589 0.970157
4
 1 0.335339 0.335339 0.969469
4
 1 0.333202 0.333202 0.968547
4
 1 0.331448 0.331448 0.968265
4
 1 0.325761 0.325761 0.976704
4
 1 0.327751 0.327751 0.972521
4
 0.977231 0.26058 0.26058 1
4
 0.981948 0.26327 0.26327 1
4
 0.985227 0.266663 0.266663 1
4
 0.97511 0.260906 0.260906 1
4
 0.978689 0.264208 0.264208 1
4
 0.982789 0.266717 0.266717 1
4
 0.978735 0.260041 0.260041 1
4
 0.97192 0.257706 0.257706 1
4
 0.970775 0.255202 0.255202 1
4
 0.986743 0.266112 0.266112 1
4
 0.988674 0.266087 0.266087 1
4
 0.991976 0.269516 0.269516 1
4
 0.992163 0.272347 0.272347 1
4
 0.987588 0.269596 0.269596 1
4
 0.995456 0.273371 0.273371 1
4
 0.997404 0.273346 0.273346 1
4
 0.998826 0.272527 0.272527 1
4
 1 0.343616 0.343616 0.947747
4
 1 0.339531 0.339531 0.952204
4
 1 0.336641 0.336641 0.952354
4
 1 0.338357 0.338357 0.948984
4
 1 0.346389 0.346389 0.952687
4
 1 0.344744 0.344744 0.951567
4
 1 0.340646 0.340646 0.956042
4
 1 0.343636 0.343636 0.959566
4
 1 0.341168 0.341168 0.960907
4
 1 0.339902 0.339902 0.960225
4
 1 0.347009 0.347009 0.954973
4
 1 0.347857 0.347857 0.94827
4
 1 0.350142 0.350142 0.951665
4
 1 0.342089 0.342089 0.95161
4
 1 0.335145 0.335145 0.956236
4
 1 0.337284 0.337284 0.960269
4
 1 0.335509 0.335509 0.959988
4
 1 0.334152 0.334152 0.959547
4
 1 0.304085 0.304085 0.986584
4
 1 0.303207 0.303207 0.990192
4
 1 0.301064 0.301064 0.995195
4
 1 0.297814 0.297814 0.993846
4
 1 0.298658 0.298658 0.996697
4
 1 0.309902 0.309902 0.982222
4
 1 0.306604 0.306604 0.985668
4
 1 0.311795 0.311795 0.978015
4
 1 0.30859 0.30859 0.978011
4
 1 0.311411 0.311411 0.975995
4
 1 0.311278 0.311278 0.985824
4
 1 0.309007 0.309007 0.985813
4
 1 0.314238 0.314238 0.97816
4
 1 0.315421 0.315421 0.980043
4
 1 0.307965 0.307965 0.989283
4
 1 0.30932 0.30932 0.991706
4
 1 0.313159 0.313159 0.988017
4
 1 0.314358 0.314358 0.983492
4
 1 0.307063 0.307063 0.991695
4
 1 0.303558 0.303558 0.99427
4
 1 0.345919 0.345919 0.963187
4
 1 0.34924 0.34924 0.964469
4
 1 0.345986 0.345986 0.966889
4
 1 0.351412 0.351412 0.959544
4
 1 0.349315 0.349315 0.958577
4
 1 0.341185 0.341185 0.968549
4
 1 0.341513 0.341513 0.964492
4
 1 0.347359 0.347359 0.958536
4
 0.942642 0.271768 0.271768 1
4
 0.94319 0.275517 0.275517 1
4
 0.946958 0.2781 0.2781 1
4
 0.946892 0.276298 0.276298 1
4
 0.940247 0.267287 0.267287 1
4
 0.946129 0.272032 0.272032 1
4
 0.946932 0.274764 0.274764 1
4
 0.944368 0.280034 0.280034 1
4
 0.948507 0.282727 0.282727 1
4
 0.947549 0.280371 0.280371 1
4
 0.943685 0.269041 0.269041 1
4
 0.939057 0.264107 0.264107 1
4
 0.949099 0.285035 0.285035 1
4
 0.953091 0.276096 0.276096 1
4
 0.953606 0.274883 0.274883 1
4
 0.956965 0.280502 0.280502 1
4
 0.961092 0.281364 0.281364 1
4
 0.960124 0.282768 0.282768 1
4
 0.959087 0.278595 0.278595 1
4
 0.950102 0.272615 0.272615 1
4
 0.944931 0.268796 0.268796 1
4
 0.953448 0.278188 0.278188 1
4
 0.950395 0.276567 0.276567 1
4
 0.945443 0.267615 0.267615 1
4
 0.95608 0.275083 0.275083 1
4
 0.960484 0.284911 0.284911 1
4
 0.957683 0.284768 0.284768 1
4
 0.954258 0.280981 0.280981 1
4
 1 0.325406 0.325406 0.991456
4
 1 0.322719 0.322719 0.98896
4
 1 0.324588 0.324588 0.998272
4
 1 0.32724 0.32724 0.995941
4
 1 0.330683 0.330683 0.98746
4
 1 0.328969 0.328969 0.991787
4
 1 0.283843 0.283843 0.999815
4
 0.999054 0.287138 0.287138 1
4
 0.996181 0.281617 0.281617 1
4
 0.992861 0.28092 0.28092 1
4
 0.998359 0.279216 0.279216 1
4
 0.998428 0.281037 0.281037 1
4
 1 0.279799 0.279799 0.998331
4
 1 0.282535 0.282535 0.994569
4
 0.994362 0.276976 0.276976 1
4
 0.989707 0.272402 0.272402 1
4
 0.997592 0.276216 0.276216 1
4
 0.995924 0.287327 0.287327 1
4
 1 0.292343 0.292343 0.998204
4
 0.997732 0.290384 0.290384 1
4
 0.991117 0.278092 0.278092 1
4
 0.989432 0.275421 0.275421 1
4
 0.989776 0.274178 0.274178 1
4
 0.985715 0.308653 0.308653 1
4
 0.985111 0.303923 0.303923 1
4
 0.982507 0.303561 0.303561 1
4
 0.97958 0.302355 0.302355 1
4
 0.986153 0.313019 0.313019 1
4
 0.991049 0.316141 0.316141 1
4
 0.979649 0.304326 0.304326 1
4
 0.980969 0.307741 0.307741 1
4
 0.991421 0.318537 0.318537 1
4
 0.989491 0.319529 0.319529 1
4
 0.98225 0.312932 0.312932 1
4
 0.984793 0.316411 0.316411 1
4
 0.981337 0.310072 0.310072 1
4
 0.955322 0.247109 0.247109 1
4
 0.951414 0.244586 0.244586 1
4
 0.946921 0.241891 0.241891 1
4
 0.955842 0.249329 0.249329 1
4
 0.950753 0.246808 0.246808 1
4
 0.946591 0.242987 0.242987 1
4
 0.956131 0.246282 0.246282 1
4
 0.96058 0.251057 0.251057 1
4
 0.964922 0.253383 0.253383 1
4
 0.963785 0.250922 0.250922 1
4
 0.947722 0.241081 0.241081 1
4
 0.942918 0.239504 0.239504 1
4
 0.955985 0.250751 0.250751 1
4
 0.965446 0.255659 0.255659 1
4
 0.966802 0.258648 0.258648 1
4
 0.958646 0.253569 0.253569 1
4
 0.962421 0.255828 0.255828 1
4
 0.949488 0.248846 0.248846 1
4
 0.946734 0.244373 0.244373 1
4
 0.953542 0.251006 0.251006 1
4
 0.994403 0.322716 0.322716 1
4
 0.998674 0.325101 0.325101 1
4
 0.997377 0.328356 0.328356 1
4
 0.99673 0.326113 0.326113 1
4
 0.993087 0.326364 0.326364 1
4
 0.987756 0.320562 0.320562 1
4
 1 0.334359 0.334359 0.997048
4
 1 0.330235 0.330235 0.998343
4
 0.997999 0.331037 0.331037 1
4
 1 0.33198 0.33198 0.994179
4
 1 0.335827 0.335827 0.992809
4
 0.998647 0.333314 0.333314 1
4
 1 0.337917 0.337917 0.992165
4
 1 0.329926 0.329926 0.994824
4
 0.989125 0.325705 0.325705 1
4
 0.988372 0.323179 0.323179 1
4
 1 0.330604 0.330604 0.9555
4
 1 0.333987 0.333987 0.953002
4
 1 0.32789 0.32789 0.960674
4
 1 0.331307 0.331307 0.959698
4
 1 0.33229 0.33229 0.952119
4
 1 0.327168 0.327168 0.954152
4
 1 0.325134 0.325134 0.957886
4
 1 0.326224 0.326224 0.959784
4
 1 0.323398 0.323398 0.957422
4
 1 0.3224 0.3224 0.955106
4
 1 0.317647 0.317647 0.963106
4
 1 0.320396 0.320396 0.958844
4
 1 0.322465 0.322465 0.963074
4
 1 0.318369 0.318369 0.96555
4
 1 0.313728 0.313728 0.962203
4
 1 0.316442 0.316442 0.957945
4
 1 0.316667 0.316667 0.960777
4
 1 0.309585 0.309585 0.969858
4
 1 0.311813 0.311813 0.969495
4
 1 0.314665 0.314665 0.967497
4
 0.978539 0.275448 0.275448 1
4
 0.986926 0.281945 0.281945 1
4
 0.982962 0.278 0.278 1
4
 0.979126 0.278051 0.278051 1
4
 0.979312 0.274398 0.274398 1
4
 0.975135 0.2704 0.2704 1
4
 0.97549 0.274448 0.274448 1
4
 0.971269 0.26951 0.26951 1
4
 0.969804 0.266953 0.266953 1
4
 0.987706 0.28087 0.28087 1
4
 0.98975 0.281105 0.281105 1
4
 0.99349 0.287886 0.287886 1
4
 0.985774 0.277172 0.277172 1
4
 0.979543 0.272906 0.272906 1
4
 0.98157 0.273134 0.273134 1
4
 0.986135 0.274739 0.274739 1
4
 0.979901 0.27051 0.27051 1
4
 0.973949 0.266502 0.266502 1
4
 0.970033 0.265501 0.265501 1
4
 1 0.348104 0.348104 0.971396
4
 1 0.346644 0.346644 0.970575
4
 1 0.347352 0.347352 0.968135
4
 1 0.3528 0.3528 0.960781
4
 1 0.344157 0.344157 0.976287
4
 1 0.342489 0.342489 0.982515
4
 1 0.342182 0.342182 0.980242
4
 1 0.338903 0.338903 0.978749
4
 1 0.340555 0.340555 0.974721
4
 1 0.343414 0.343414 0.973009
4
 1 0.340748 0.340748 0.979413
4
 0.961963 0.277669 0.277669 1
4
 0.964626 0.285787 0.285787 1
4
 0.963584 0.281569 0.281569 1
4
 0.967592 0.28756 0.28756 1
4
 0.971318 0.289482 0.289482 1
4
 0.960844 0.287069 0.287069 1
4
 0.966618 0.288995 0.288995 1
4
 0.96859 0.292614 0.292614 1
4
 0.964821 0.290536 0.290536 1
4
 0.980693 0.268324 0.268324 1
4
 0.984801 0.270872 0.270872 1
4
 0.978479 0.268068 0.268068 1
4
 0.97337 0.261294 0.261294 1
4
 0.968668 0.255521 0.255521 1
4
 0.971172 0.261044 0.261044 1
4
 0.981034 0.267114 0.267114 1
4
 0.974736 0.264349 0.264349 1
4
 0.968625 0.263104 0.263104 1
4
 0.968129 0.261216 0.261216 1
4
 1 0.277828 0.277828 0.99565
4
 1 0.275782 0.275782 0.997675
4
 1 0.279714 0.279714 0.995333
4
 1 0.276602 0.276602 0.994232
4
 1 0.280545 0.280545 0.991898
4
 0.978798 0.281002 0.281002 1
4
 0.970866 0.272591 0.272591 1
4
 0.972895 0.275301 0.275301 1
4
 0.971851 0.272057 0.272057 1
4
 0.983361 0.298152 0.298152 1
4
 0.981973 0.300858 0.300858 1
4
 0.980817 0.297936 0.297936 1
4
 0.982182 0.292595 0.292595 1
4
 0.981873 0.287545 0.287545 1
4
 0.985712 0.293492 0.293492 1
4
 0.98619 0.292067 0.292067 1
4
 0.986316 0.298059 0.298059 1
4
 0.985676 0.296023 0.296023 1
4
 0.979606 0.294904 0.294904 1
4
 0.985844 0.289501 0.289501 1
4
 0.975609 0.279236 0.279236 1
4
 1 0.333398 0.333398 0.986352
4
 1 0.336768 0.336768 0.978007
4
 1 0.336959 0.336959 0.982714
4
 1 0.335513 0.335513 0.98931
4
 1 0.335212 0.335212 0.987021
4
 1 0.341251 0.341251 0.972271
4
 1 0.338735 0.338735 0.969902
4
 1 0.339096 0.339096 0.985661
4
 0.963543 0.300859 0.300859 1
4
 0.966804 0.307116 0.307116 1
4
 0.970448 0.309419 0.309419 1
4
 0.96858 0.305878 0.305878 1
4
 0.966638 0.302622 0.302622 1
4
 0.957426 0.292675 0.292675 1
4
 0.965391 0.299403 0.299403 1
4
 0.961837 0.296039 0.296039 1
4
 0.97178 0.312492 0.312492 1
4
 0.974838 0.309077 0.309077 1
4
 0.980527 0.313944 0.313944 1
4
 0.973581 0.30579 0.30579 1
4
 0.977086 0.307655 0.307655 1
4
 0.979993 0.318603 0.318603 1
4
 0.973566 0.311232 0.311232 1
4
 0.979247 0.316132 0.316132 1
4
 0.983815 0.319915 0.319915 1
4
 0.977363 0.312514 0.312514 1
4
 0.970439 0.304397 0.304397 1
4
 1 0.31983 0.31983 0.969466
4
 1 0.315768 0.315768 0.971959
4
 1 0.317347 0.317347 0.975846
4
 1 0.320176 0.320176 0.971097
4
 1 0.307477 0.307477 0.974328
4
 1 0.319437 0.319437 0.967464
4
 1 0.326918 0.326918 0.964001
4
 1 0.323896 0.323896 0.966606
4
 1 0.312522 0.312522 0.971955
4
 1 0.337801 0.337801 0.965155
4
 1 0.334776 0.334776 0.964189
4
 1 0.331667 0.331667 0.963464
4
 1 0.329299 0.329299 0.968145
4
 1 0.327272 0.327272 0.965623
4
 1 0.327967 0.327967 0.9677
4
 1 0.29117 0.29117 0.97152
4
 1 0.289981 0.289981 0.969895
4
 1 0.285363 0.285363 0.972826
4
 1 0.288553 0.288553 0.973715
4
 1 0.356485 0.356485 0.952415
4
 1 0.354358 0.354358 0.951455
4
 1 0.352875 0.352875 0.954911
4
 0.989861 0.298973 0.298973 1
4
 0.9965 0.305415 0.305415 1
4
 0.994062 0.301952 0.301952 1
4
 0.989698 0.295489 0.295489 1
4
 0.993418 0.29989 0.29989 1
4
 0.993899 0.298433 0.298433 1
4
 0.995429 0.297816 0.297816 1
4
 0.993928 0.29499 0.29499 1
4
 1 0.306327 0.306327 0.999919
4
 1 0.308748 0.308748 0.995797
4
 1 0.312579 0.312579 0.992093
4
 1 0.305996 0.305996 0.998239
4
 0.99917 0.302252 0.302252 1
4
 0.966944 0.272736 0.272736 1
4
 0.967702 0.270878 0.270878 1
4
 0.960941 0.262499 0.262499 1
4
 0.966664 0.267687 0.267687 1
4
 1 0.304894 0.304894 0.996706
4
 1 0.312242 0.312242 0.990427
4
 0.999199 0.298764 0.298764 1
4
 1 0.318785 0.318785 0.990626
4
 1 0.316389 0.316389 0.990042
4
 1 0.318511 0.318511 0.987325
4
 1 0.321304 0.321304 0.98434
4
 0.955647 0.28735 0.28735 1
4
 0.952296 0.285377 0.285377 1
4
 0.957651 0.291083 0.291083 1
4
 0.954682 0.284956 0.284956 1
4
 0.954616 0.28311 0.28311 1
4
 0.962007 0.290391 0.290391 1
4
 0.960051 0.290653 0.290653 1
4
 0.951268 0.281166 0.281166 1
4
 0.952144 0.253166 0.253166 1
4
 0.961917 0.261985 0.261985 1
4
 0.956209 0.255363 0.255363 1
4
 0.960467 0.259499 0.259499 1
4
 0.952131 0.251643 0.251643 1
4
 0.966186 0.264627 0.264627 1
4
 0.960453 0.257938 0.257938 1
4
 0.959962 0.256087 0.256087 1
4
 0.964236 0.260235 0.260235 1
4
 0.974472 0.295605 0.295605 1
4
 0.973324 0.292733 0.292733 1
4
 0.971569 0.29443 0.29443 1
4
 0.978224 0.29758 0.29758 1
4
 0.976461 0.299306 0.299306 1
4
 0.969763 0.295999 0.295999 1
4
 0.974864 0.301461 0.301461 1
4
 0.999351 0.293439 0.293439 1
4
 1 0.295776 0.295776 0.999446
4
 0.996492 0.293429 0.293429 1
4
 1 0.317327 0.317327 0.982223
4
 1 0.318888 0.318888 0.983759
4
 1 0.321381 0.321381 0.972967
4
 1 0.320109 0.320109 0.979253
4
 1 0.322064 0.322064 0.975059
4
 1 0.324935 0.324935 0.970315
4
 1 0.323649 0.323649 0.976584
4
 0.967587 0.297507 0.297507 1
4
 0.97107 0.29932 0.29932 1
4
 0.964025 0.294163 0.294163 1
4
 0.972676 0.302996 0.302996 1
4
 0.965619 0.297776 0.297776 1
1
 1

